\Problem name: compact

Minimize
OBJROW: C
Subject To
ord(0,1):  - x(0,1) + x(0,2) >= 2
ord(0,2):  x(0,0) - x(0,2) >= 8
ord(1,1):  - x(1,1) + x(1,2) >= 9
ord(1,2):  x(1,0) - x(1,2) >= 9
ord(2,1):  x(2,0) - x(2,1) >= 10
ord(2,2):  - x(2,0) + x(2,2) >= 10
ord(3,1):  - x(3,0) + x(3,2) >= 4
ord(3,2):  x(3,1) - x(3,2) >= 7
triangle2(0,1,0):  y(0,1,0) + y(1,0,0) = 1
triangle2(0,1,1):  y(0,1,1) + y(1,0,1) = 1
triangle2(0,1,2):  y(0,1,2) + y(1,0,2) = 1
triangle2(0,2,0):  y(0,2,0) + y(2,0,0) = 1
triangle2(0,2,1):  y(0,2,1) + y(2,0,1) = 1
triangle2(0,2,2):  y(0,2,2) + y(2,0,2) = 1
triangle2(0,3,0):  y(0,3,0) + y(3,0,0) = 1
triangle2(0,3,1):  y(0,3,1) + y(3,0,1) = 1
triangle2(0,3,2):  y(0,3,2) + y(3,0,2) = 1
triangle2(1,2,0):  y(1,2,0) + y(2,1,0) = 1
triangle2(1,2,1):  y(1,2,1) + y(2,1,1) = 1
triangle2(1,2,2):  y(1,2,2) + y(2,1,2) = 1
triangle2(1,3,0):  y(1,3,0) + y(3,1,0) = 1
triangle2(1,3,1):  y(1,3,1) + y(3,1,1) = 1
triangle2(1,3,2):  y(1,3,2) + y(3,1,2) = 1
triangle2(2,3,0):  y(2,3,0) + y(3,2,0) = 1
triangle2(2,3,1):  y(2,3,1) + y(3,2,1) = 1
triangle2(2,3,2):  y(2,3,2) + y(3,2,2) = 1
MCLinV(0,1,0):  x(0,0) - v(0,1,0) - x(1,0) = 7
MCLinV(1,0,0):  - x(0,0) - v(1,0,0) + x(1,0) = 8
MCLin1(0,1,0):  u(0,1,0) >= -0
MCLin2(0,1,0):  -80 y(1,0,0) - u(0,1,0) <= -0
MCLin3(0,1,0):  57 y(1,0,0) + v(0,1,0) - u(0,1,0) <= 57
MCLin4(0,1,0):  57 y(1,0,0) - u(0,1,0) >= -0
MCLin5(0,1,0):  -80 y(1,0,0) + v(0,1,0) - u(0,1,0) >= -80
MCLin6(1,0,0):  u(1,0,0) >= -0
MCLin7(1,0,0):  -72 y(0,1,0) - u(1,0,0) <= -0
MCLin8(1,0,0):  65 y(0,1,0) + v(1,0,0) - u(1,0,0) <= 65
MCLin9(1,0,0):  65 y(0,1,0) - u(1,0,0) >= -0
MCLin10(1,0,0):  -72 y(0,1,0) + v(1,0,0) - u(1,0,0) >= -72
MCLinV(0,1,1):  x(0,1) - v(0,1,1) - x(1,1) = 9
MCLinV(1,0,1):  - x(0,1) - v(1,0,1) + x(1,1) = 2
MCLin1(0,1,1):  u(0,1,1) >= -0
MCLin2(0,1,1):  -74 y(1,0,1) - u(0,1,1) <= -0
MCLin3(0,1,1):  63 y(1,0,1) + v(0,1,1) - u(0,1,1) <= 63
MCLin4(0,1,1):  63 y(1,0,1) - u(0,1,1) >= -0
MCLin5(0,1,1):  -74 y(1,0,1) + v(0,1,1) - u(0,1,1) >= -74
MCLin6(1,0,1):  u(1,0,1) >= -0
MCLin7(1,0,1):  -74 y(0,1,1) - u(1,0,1) <= -0
MCLin8(1,0,1):  63 y(0,1,1) + v(1,0,1) - u(1,0,1) <= 63
MCLin9(1,0,1):  63 y(0,1,1) - u(1,0,1) >= -0
MCLin10(1,0,1):  -74 y(0,1,1) + v(1,0,1) - u(1,0,1) >= -74
MCLinV(0,1,2):  x(0,2) - v(0,1,2) - x(1,2) = 9
MCLinV(1,0,2):  - x(0,2) - v(1,0,2) + x(1,2) = 8
MCLin1(0,1,2):  u(0,1,2) >= -0
MCLin2(0,1,2):  -81 y(1,0,2) - u(0,1,2) <= -0
MCLin3(0,1,2):  56 y(1,0,2) + v(0,1,2) - u(0,1,2) <= 56
MCLin4(0,1,2):  56 y(1,0,2) - u(0,1,2) >= -0
MCLin5(0,1,2):  -81 y(1,0,2) + v(0,1,2) - u(0,1,2) >= -81
MCLin6(1,0,2):  u(1,0,2) >= -0
MCLin7(1,0,2):  -73 y(0,1,2) - u(1,0,2) <= -0
MCLin8(1,0,2):  64 y(0,1,2) + v(1,0,2) - u(1,0,2) <= 64
MCLin9(1,0,2):  64 y(0,1,2) - u(1,0,2) >= -0
MCLin10(1,0,2):  -73 y(0,1,2) + v(1,0,2) - u(1,0,2) >= -73
MCLinV(0,2,0):  x(0,0) - v(0,2,0) - x(2,0) = 10
MCLinV(2,0,0):  - x(0,0) - v(2,0,0) + x(2,0) = 8
MCLin1(0,2,0):  u(0,2,0) >= -0
MCLin2(0,2,0):  -72 y(2,0,0) - u(0,2,0) <= -0
MCLin3(0,2,0):  62 y(2,0,0) + v(0,2,0) - u(0,2,0) <= 62
MCLin4(0,2,0):  62 y(2,0,0) - u(0,2,0) >= -0
MCLin5(0,2,0):  -72 y(2,0,0) + v(0,2,0) - u(0,2,0) >= -72
MCLin6(2,0,0):  u(2,0,0) >= -0
MCLin7(2,0,0):  -80 y(0,2,0) - u(2,0,0) <= -0
MCLin8(2,0,0):  54 y(0,2,0) + v(2,0,0) - u(2,0,0) <= 54
MCLin9(2,0,0):  54 y(0,2,0) - u(2,0,0) >= -0
MCLin10(2,0,0):  -80 y(0,2,0) + v(2,0,0) - u(2,0,0) >= -80
MCLinV(0,2,1):  x(0,1) - v(0,2,1) - x(2,1) = 10
MCLinV(2,0,1):  - x(0,1) - v(2,0,1) + x(2,1) = 2
MCLin1(0,2,1):  u(0,2,1) >= -0
MCLin2(0,2,1):  -72 y(2,0,1) - u(0,2,1) <= -0
MCLin3(0,2,1):  62 y(2,0,1) + v(0,2,1) - u(0,2,1) <= 62
MCLin4(0,2,1):  62 y(2,0,1) - u(0,2,1) >= -0
MCLin5(0,2,1):  -72 y(2,0,1) + v(0,2,1) - u(0,2,1) >= -72
MCLin6(2,0,1):  u(2,0,1) >= -0
MCLin7(2,0,1):  -74 y(0,2,1) - u(2,0,1) <= -0
MCLin8(2,0,1):  60 y(0,2,1) + v(2,0,1) - u(2,0,1) <= 60
MCLin9(2,0,1):  60 y(0,2,1) - u(2,0,1) >= -0
MCLin10(2,0,1):  -74 y(0,2,1) + v(2,0,1) - u(2,0,1) >= -74
MCLinV(0,2,2):  x(0,2) - v(0,2,2) - x(2,2) = 8
MCLinV(2,0,2):  - x(0,2) - v(2,0,2) + x(2,2) = 8
MCLin1(0,2,2):  u(0,2,2) >= -0
MCLin2(0,2,2):  -88 y(2,0,2) - u(0,2,2) <= -0
MCLin3(0,2,2):  46 y(2,0,2) + v(0,2,2) - u(0,2,2) <= 46
MCLin4(0,2,2):  46 y(2,0,2) - u(0,2,2) >= -0
MCLin5(0,2,2):  -88 y(2,0,2) + v(0,2,2) - u(0,2,2) >= -88
MCLin6(2,0,2):  u(2,0,2) >= -0
MCLin7(2,0,2):  -62 y(0,2,2) - u(2,0,2) <= -0
MCLin8(2,0,2):  72 y(0,2,2) + v(2,0,2) - u(2,0,2) <= 72
MCLin9(2,0,2):  72 y(0,2,2) - u(2,0,2) >= -0
MCLin10(2,0,2):  -62 y(0,2,2) + v(2,0,2) - u(2,0,2) >= -62
MCLinV(0,3,0):  x(0,0) - v(0,3,0) - x(3,0) = 4
MCLinV(3,0,0):  - x(0,0) - v(3,0,0) + x(3,0) = 8
MCLin1(0,3,0):  u(0,3,0) >= -0
MCLin2(0,3,0):  -65 y(3,0,0) - u(0,3,0) <= -0
MCLin3(0,3,0):  78 y(3,0,0) + v(0,3,0) - u(0,3,0) <= 78
MCLin4(0,3,0):  78 y(3,0,0) - u(0,3,0) >= -0
MCLin5(0,3,0):  -65 y(3,0,0) + v(0,3,0) - u(0,3,0) >= -65
MCLin6(3,0,0):  u(3,0,0) >= -0
MCLin7(3,0,0):  -90 y(0,3,0) - u(3,0,0) <= -0
MCLin8(3,0,0):  53 y(0,3,0) + v(3,0,0) - u(3,0,0) <= 53
MCLin9(3,0,0):  53 y(0,3,0) - u(3,0,0) >= -0
MCLin10(3,0,0):  -90 y(0,3,0) + v(3,0,0) - u(3,0,0) >= -90
MCLinV(0,3,1):  x(0,1) - v(0,3,1) - x(3,1) = 8
MCLinV(3,0,1):  - x(0,1) - v(3,0,1) + x(3,1) = 2
MCLin1(0,3,1):  u(0,3,1) >= -0
MCLin2(0,3,1):  -90 y(3,0,1) - u(0,3,1) <= -0
MCLin3(0,3,1):  53 y(3,0,1) + v(0,3,1) - u(0,3,1) <= 53
MCLin4(0,3,1):  53 y(3,0,1) - u(0,3,1) >= -0
MCLin5(0,3,1):  -90 y(3,0,1) + v(0,3,1) - u(0,3,1) >= -90
MCLin6(3,0,1):  u(3,0,1) >= -0
MCLin7(3,0,1):  -63 y(0,3,1) - u(3,0,1) <= -0
MCLin8(3,0,1):  80 y(0,3,1) + v(3,0,1) - u(3,0,1) <= 80
MCLin9(3,0,1):  80 y(0,3,1) - u(3,0,1) >= -0
MCLin10(3,0,1):  -63 y(0,3,1) + v(3,0,1) - u(3,0,1) >= -63
MCLinV(0,3,2):  x(0,2) - v(0,3,2) - x(3,2) = 7
MCLinV(3,0,2):  - x(0,2) - v(3,0,2) + x(3,2) = 8
MCLin1(0,3,2):  u(0,3,2) >= -0
MCLin2(0,3,2):  -80 y(3,0,2) - u(0,3,2) <= -0
MCLin3(0,3,2):  63 y(3,0,2) + v(0,3,2) - u(0,3,2) <= 63
MCLin4(0,3,2):  63 y(3,0,2) - u(0,3,2) >= -0
MCLin5(0,3,2):  -80 y(3,0,2) + v(0,3,2) - u(0,3,2) >= -80
MCLin6(3,0,2):  u(3,0,2) >= -0
MCLin7(3,0,2):  -78 y(0,3,2) - u(3,0,2) <= -0
MCLin8(3,0,2):  65 y(0,3,2) + v(3,0,2) - u(3,0,2) <= 65
MCLin9(3,0,2):  65 y(0,3,2) - u(3,0,2) >= -0
MCLin10(3,0,2):  -78 y(0,3,2) + v(3,0,2) - u(3,0,2) >= -78
MCLinV(1,2,0):  x(1,0) - v(1,2,0) - x(2,0) = 10
MCLinV(2,1,0):  - x(1,0) - v(2,1,0) + x(2,0) = 7
MCLin1(1,2,0):  u(1,2,0) >= -0
MCLin2(1,2,0):  -64 y(2,1,0) - u(1,2,0) <= -0
MCLin3(1,2,0):  63 y(2,1,0) + v(1,2,0) - u(1,2,0) <= 63
MCLin4(1,2,0):  63 y(2,1,0) - u(1,2,0) >= -0
MCLin5(1,2,0):  -64 y(2,1,0) + v(1,2,0) - u(1,2,0) >= -64
MCLin6(2,1,0):  u(2,1,0) >= -0
MCLin7(2,1,0):  -80 y(1,2,0) - u(2,1,0) <= -0
MCLin8(2,1,0):  47 y(1,2,0) + v(2,1,0) - u(2,1,0) <= 47
MCLin9(2,1,0):  47 y(1,2,0) - u(2,1,0) >= -0
MCLin10(2,1,0):  -80 y(1,2,0) + v(2,1,0) - u(2,1,0) >= -80
MCLinV(1,2,1):  x(1,1) - v(1,2,1) - x(2,1) = 10
MCLinV(2,1,1):  - x(1,1) - v(2,1,1) + x(2,1) = 9
MCLin1(1,2,1):  u(1,2,1) >= -0
MCLin2(1,2,1):  -72 y(2,1,1) - u(1,2,1) <= -0
MCLin3(1,2,1):  55 y(2,1,1) + v(1,2,1) - u(1,2,1) <= 55
MCLin4(1,2,1):  55 y(2,1,1) - u(1,2,1) >= -0
MCLin5(1,2,1):  -72 y(2,1,1) + v(1,2,1) - u(1,2,1) >= -72
MCLin6(2,1,1):  u(2,1,1) >= -0
MCLin7(2,1,1):  -74 y(1,2,1) - u(2,1,1) <= -0
MCLin8(2,1,1):  53 y(1,2,1) + v(2,1,1) - u(2,1,1) <= 53
MCLin9(2,1,1):  53 y(1,2,1) - u(2,1,1) >= -0
MCLin10(2,1,1):  -74 y(1,2,1) + v(2,1,1) - u(2,1,1) >= -74
MCLinV(1,2,2):  x(1,2) - v(1,2,2) - x(2,2) = 8
MCLinV(2,1,2):  - x(1,2) - v(2,1,2) + x(2,2) = 9
MCLin1(1,2,2):  u(1,2,2) >= -0
MCLin2(1,2,2):  -81 y(2,1,2) - u(1,2,2) <= -0
MCLin3(1,2,2):  46 y(2,1,2) + v(1,2,2) - u(1,2,2) <= 46
MCLin4(1,2,2):  46 y(2,1,2) - u(1,2,2) >= -0
MCLin5(1,2,2):  -81 y(2,1,2) + v(1,2,2) - u(1,2,2) >= -81
MCLin6(2,1,2):  u(2,1,2) >= -0
MCLin7(2,1,2):  -63 y(1,2,2) - u(2,1,2) <= -0
MCLin8(2,1,2):  64 y(1,2,2) + v(2,1,2) - u(2,1,2) <= 64
MCLin9(2,1,2):  64 y(1,2,2) - u(2,1,2) >= -0
MCLin10(2,1,2):  -63 y(1,2,2) + v(2,1,2) - u(2,1,2) >= -63
MCLinV(1,3,0):  x(1,0) - v(1,3,0) - x(3,0) = 4
MCLinV(3,1,0):  - x(1,0) - v(3,1,0) + x(3,0) = 7
MCLin1(1,3,0):  u(1,3,0) >= -0
MCLin2(1,3,0):  -57 y(3,1,0) - u(1,3,0) <= -0
MCLin3(1,3,0):  79 y(3,1,0) + v(1,3,0) - u(1,3,0) <= 79
MCLin4(1,3,0):  79 y(3,1,0) - u(1,3,0) >= -0
MCLin5(1,3,0):  -57 y(3,1,0) + v(1,3,0) - u(1,3,0) >= -57
MCLin6(3,1,0):  u(3,1,0) >= -0
MCLin7(3,1,0):  -90 y(1,3,0) - u(3,1,0) <= -0
MCLin8(3,1,0):  46 y(1,3,0) + v(3,1,0) - u(3,1,0) <= 46
MCLin9(3,1,0):  46 y(1,3,0) - u(3,1,0) >= -0
MCLin10(3,1,0):  -90 y(1,3,0) + v(3,1,0) - u(3,1,0) >= -90
MCLinV(1,3,1):  x(1,1) - v(1,3,1) - x(3,1) = 8
MCLinV(3,1,1):  - x(1,1) - v(3,1,1) + x(3,1) = 9
MCLin1(1,3,1):  u(1,3,1) >= -0
MCLin2(1,3,1):  -90 y(3,1,1) - u(1,3,1) <= -0
MCLin3(1,3,1):  46 y(3,1,1) + v(1,3,1) - u(1,3,1) <= 46
MCLin4(1,3,1):  46 y(3,1,1) - u(1,3,1) >= -0
MCLin5(1,3,1):  -90 y(3,1,1) + v(1,3,1) - u(1,3,1) >= -90
MCLin6(3,1,1):  u(3,1,1) >= -0
MCLin7(3,1,1):  -63 y(1,3,1) - u(3,1,1) <= -0
MCLin8(3,1,1):  73 y(1,3,1) + v(3,1,1) - u(3,1,1) <= 73
MCLin9(3,1,1):  73 y(1,3,1) - u(3,1,1) >= -0
MCLin10(3,1,1):  -63 y(1,3,1) + v(3,1,1) - u(3,1,1) >= -63
MCLinV(1,3,2):  x(1,2) - v(1,3,2) - x(3,2) = 7
MCLinV(3,1,2):  - x(1,2) - v(3,1,2) + x(3,2) = 9
MCLin1(1,3,2):  u(1,3,2) >= -0
MCLin2(1,3,2):  -73 y(3,1,2) - u(1,3,2) <= -0
MCLin3(1,3,2):  63 y(3,1,2) + v(1,3,2) - u(1,3,2) <= 63
MCLin4(1,3,2):  63 y(3,1,2) - u(1,3,2) >= -0
MCLin5(1,3,2):  -73 y(3,1,2) + v(1,3,2) - u(1,3,2) >= -73
MCLin6(3,1,2):  u(3,1,2) >= -0
MCLin7(3,1,2):  -79 y(1,3,2) - u(3,1,2) <= -0
MCLin8(3,1,2):  57 y(1,3,2) + v(3,1,2) - u(3,1,2) <= 57
MCLin9(3,1,2):  57 y(1,3,2) - u(3,1,2) >= -0
MCLin10(3,1,2):  -79 y(1,3,2) + v(3,1,2) - u(3,1,2) >= -79
MCLinV(2,3,0):  x(2,0) - v(2,3,0) - x(3,0) = 4
MCLinV(3,2,0):  - x(2,0) - v(3,2,0) + x(3,0) = 10
MCLin1(2,3,0):  u(2,3,0) >= -0
MCLin2(2,3,0):  -65 y(3,2,0) - u(2,3,0) <= -0
MCLin3(2,3,0):  68 y(3,2,0) + v(2,3,0) - u(2,3,0) <= 68
MCLin4(2,3,0):  68 y(3,2,0) - u(2,3,0) >= -0
MCLin5(2,3,0):  -65 y(3,2,0) + v(2,3,0) - u(2,3,0) >= -65
MCLin6(3,2,0):  u(3,2,0) >= -0
MCLin7(3,2,0):  -82 y(2,3,0) - u(3,2,0) <= -0
MCLin8(3,2,0):  51 y(2,3,0) + v(3,2,0) - u(3,2,0) <= 51
MCLin9(3,2,0):  51 y(2,3,0) - u(3,2,0) >= -0
MCLin10(3,2,0):  -82 y(2,3,0) + v(3,2,0) - u(3,2,0) >= -82
MCLinV(2,3,1):  x(2,1) - v(2,3,1) - x(3,1) = 8
MCLinV(3,2,1):  - x(2,1) - v(3,2,1) + x(3,1) = 10
MCLin1(2,3,1):  u(2,3,1) >= -0
MCLin2(2,3,1):  -90 y(3,2,1) - u(2,3,1) <= -0
MCLin3(2,3,1):  43 y(3,2,1) + v(2,3,1) - u(2,3,1) <= 43
MCLin4(2,3,1):  43 y(3,2,1) - u(2,3,1) >= -0
MCLin5(2,3,1):  -90 y(3,2,1) + v(2,3,1) - u(2,3,1) >= -90
MCLin6(3,2,1):  u(3,2,1) >= -0
MCLin7(3,2,1):  -61 y(2,3,1) - u(3,2,1) <= -0
MCLin8(3,2,1):  72 y(2,3,1) + v(3,2,1) - u(3,2,1) <= 72
MCLin9(3,2,1):  72 y(2,3,1) - u(3,2,1) >= -0
MCLin10(3,2,1):  -61 y(2,3,1) + v(3,2,1) - u(3,2,1) >= -61
MCLinV(2,3,2):  x(2,2) - v(2,3,2) - x(3,2) = 7
MCLinV(3,2,2):  - x(2,2) - v(3,2,2) + x(3,2) = 8
MCLin1(2,3,2):  u(2,3,2) >= -0
MCLin2(2,3,2):  -62 y(3,2,2) - u(2,3,2) <= -0
MCLin3(2,3,2):  71 y(3,2,2) + v(2,3,2) - u(2,3,2) <= 71
MCLin4(2,3,2):  71 y(3,2,2) - u(2,3,2) >= -0
MCLin5(2,3,2):  -62 y(3,2,2) + v(2,3,2) - u(2,3,2) >= -62
MCLin6(3,2,2):  u(3,2,2) >= -0
MCLin7(3,2,2):  -86 y(2,3,2) - u(3,2,2) <= -0
MCLin8(3,2,2):  47 y(2,3,2) + v(3,2,2) - u(3,2,2) <= 47
MCLin9(3,2,2):  47 y(2,3,2) - u(3,2,2) >= -0
MCLin10(3,2,2):  -86 y(2,3,2) + v(3,2,2) - u(3,2,2) >= -86
makespan(0):  C - x(0,0) >= 8
makespan(1):  C - x(1,0) >= 7
makespan(2):  C - x(2,2) >= 8
makespan(3):  C - x(3,1) >= 8
Bounds
 0 <= C <= 90
 10 <= x(0,0) <= 82
 0 <= y(0,1,0) <= 1
 0 <= y(1,0,0) <= 1
 -80 <= v(0,1,0) <= 57
 -72 <= v(1,0,0) <= 65
 -900 <= u(0,1,0)
 -900 <= u(1,0,0)
 0 <= y(0,2,0) <= 1
 0 <= y(2,0,0) <= 1
 -72 <= v(0,2,0) <= 62
 -80 <= v(2,0,0) <= 54
 -900 <= u(0,2,0)
 -900 <= u(2,0,0)
 0 <= y(0,3,0) <= 1
 0 <= y(3,0,0) <= 1
 -65 <= v(0,3,0) <= 78
 -90 <= v(3,0,0) <= 53
 -900 <= u(0,3,0)
 -900 <= u(3,0,0)
 18 <= x(1,0) <= 83
 0 <= y(1,2,0) <= 1
 0 <= y(2,1,0) <= 1
 -64 <= v(1,2,0) <= 63
 -80 <= v(2,1,0) <= 47
 -900 <= u(1,2,0)
 -900 <= u(2,1,0)
 0 <= y(1,3,0) <= 1
 0 <= y(3,1,0) <= 1
 -57 <= v(1,3,0) <= 79
 -90 <= v(3,1,0) <= 46
 -900 <= u(1,3,0)
 -900 <= u(3,1,0)
 10 <= x(2,0) <= 72
 0 <= y(2,3,0) <= 1
 0 <= y(3,2,0) <= 1
 -65 <= v(2,3,0) <= 68
 -82 <= v(3,2,0) <= 51
 -900 <= u(2,3,0)
 -900 <= u(3,2,0)
 0 <= x(3,0) <= 71
 0 <= x(0,1) <= 72
 0 <= y(0,1,1) <= 1
 0 <= y(1,0,1) <= 1
 -74 <= v(0,1,1) <= 63
 -74 <= v(1,0,1) <= 63
 -900 <= u(0,1,1)
 -900 <= u(1,0,1)
 0 <= y(0,2,1) <= 1
 0 <= y(2,0,1) <= 1
 -72 <= v(0,2,1) <= 62
 -74 <= v(2,0,1) <= 60
 -900 <= u(0,2,1)
 -900 <= u(2,0,1)
 0 <= y(0,3,1) <= 1
 0 <= y(3,0,1) <= 1
 -90 <= v(0,3,1) <= 53
 -63 <= v(3,0,1) <= 80
 -900 <= u(0,3,1)
 -900 <= u(3,0,1)
 0 <= x(1,1) <= 65
 0 <= y(1,2,1) <= 1
 0 <= y(2,1,1) <= 1
 -72 <= v(1,2,1) <= 55
 -74 <= v(2,1,1) <= 53
 -900 <= u(1,2,1)
 -900 <= u(2,1,1)
 0 <= y(1,3,1) <= 1
 0 <= y(3,1,1) <= 1
 -90 <= v(1,3,1) <= 46
 -63 <= v(3,1,1) <= 73
 -900 <= u(1,3,1)
 -900 <= u(3,1,1)
 0 <= x(2,1) <= 62
 0 <= y(2,3,1) <= 1
 0 <= y(3,2,1) <= 1
 -90 <= v(2,3,1) <= 43
 -61 <= v(3,2,1) <= 72
 -900 <= u(2,3,1)
 -900 <= u(3,2,1)
 11 <= x(3,1) <= 82
 2 <= x(0,2) <= 74
 0 <= y(0,1,2) <= 1
 0 <= y(1,0,2) <= 1
 -81 <= v(0,1,2) <= 56
 -73 <= v(1,0,2) <= 64
 -900 <= u(0,1,2)
 -900 <= u(1,0,2)
 0 <= y(0,2,2) <= 1
 0 <= y(2,0,2) <= 1
 -88 <= v(0,2,2) <= 46
 -62 <= v(2,0,2) <= 72
 -900 <= u(0,2,2)
 -900 <= u(2,0,2)
 0 <= y(0,3,2) <= 1
 0 <= y(3,0,2) <= 1
 -80 <= v(0,3,2) <= 63
 -78 <= v(3,0,2) <= 65
 -900 <= u(0,3,2)
 -900 <= u(3,0,2)
 9 <= x(1,2) <= 74
 0 <= y(1,2,2) <= 1
 0 <= y(2,1,2) <= 1
 -81 <= v(1,2,2) <= 46
 -63 <= v(2,1,2) <= 64
 -900 <= u(1,2,2)
 -900 <= u(2,1,2)
 0 <= y(1,3,2) <= 1
 0 <= y(3,1,2) <= 1
 -73 <= v(1,3,2) <= 63
 -79 <= v(3,1,2) <= 57
 -900 <= u(1,3,2)
 -900 <= u(3,1,2)
 20 <= x(2,2) <= 82
 0 <= y(2,3,2) <= 1
 0 <= y(3,2,2) <= 1
 -62 <= v(2,3,2) <= 71
 -86 <= v(3,2,2) <= 47
 -900 <= u(2,3,2)
 -900 <= u(3,2,2)
 4 <= x(3,2) <= 75
Integers
C x(0,0) y(0,1,0) y(1,0,0) v(0,1,0) v(1,0,0) u(0,1,0) u(1,0,0) y(0,2,0) y(2,0,0) 
v(0,2,0) v(2,0,0) u(0,2,0) u(2,0,0) y(0,3,0) y(3,0,0) v(0,3,0) v(3,0,0) u(0,3,0) u(3,0,0) 
x(1,0) y(1,2,0) y(2,1,0) v(1,2,0) v(2,1,0) u(1,2,0) u(2,1,0) y(1,3,0) y(3,1,0) v(1,3,0) 
v(3,1,0) u(1,3,0) u(3,1,0) x(2,0) y(2,3,0) y(3,2,0) v(2,3,0) v(3,2,0) u(2,3,0) u(3,2,0) 
x(3,0) x(0,1) y(0,1,1) y(1,0,1) v(0,1,1) v(1,0,1) u(0,1,1) u(1,0,1) y(0,2,1) y(2,0,1) 
v(0,2,1) v(2,0,1) u(0,2,1) u(2,0,1) y(0,3,1) y(3,0,1) v(0,3,1) v(3,0,1) u(0,3,1) u(3,0,1) 
x(1,1) y(1,2,1) y(2,1,1) v(1,2,1) v(2,1,1) u(1,2,1) u(2,1,1) y(1,3,1) y(3,1,1) v(1,3,1) 
v(3,1,1) u(1,3,1) u(3,1,1) x(2,1) y(2,3,1) y(3,2,1) v(2,3,1) v(3,2,1) u(2,3,1) u(3,2,1) 
x(3,1) x(0,2) y(0,1,2) y(1,0,2) v(0,1,2) v(1,0,2) u(0,1,2) u(1,0,2) y(0,2,2) y(2,0,2) 
v(0,2,2) v(2,0,2) u(0,2,2) u(2,0,2) y(0,3,2) y(3,0,2) v(0,3,2) v(3,0,2) u(0,3,2) u(3,0,2) 
x(1,2) y(1,2,2) y(2,1,2) v(1,2,2) v(2,1,2) u(1,2,2) u(2,1,2) y(1,3,2) y(3,1,2) v(1,3,2) 
v(3,1,2) u(1,3,2) u(3,1,2) x(2,2) y(2,3,2) y(3,2,2) v(2,3,2) v(3,2,2) u(2,3,2) u(3,2,2) 
x(3,2) 
End
